&PROJWFC
    prefix  = 'd'
    outdir  = './'
    filproj = 'd.proj'
/
